12° run output:
{
    "Function": "euclidB300.tsp",
    "Problem dimension": [
        173,
        245,
        277,
        12,
        159,
        239,
        274,
        182,
        198,
        115,
        136,
        78,
        270,
        25,
        180,
        120,
        186,
        7,
        237,
        141,
        55,
        282,
        218,
        100,
        185,
        261,
        65,
        224,
        63,
        220,
        29,
        272,
        130,
        247,
        144,
        193,
        21,
        3,
        67,
        33,
        151,
        191,
        143,
        165,
        16,
        168,
        242,
        205,
        259,
        199,
        252,
        107,
        121,
        266,
        19,
        84,
        101,
        77,
        292,
        178,
        149,
        195,
        166,
        294,
        289,
        215,
        235,
        163,
        197,
        13,
        273,
        102,
        155,
        105,
        39,
        90,
        14,
        283,
        34,
        253,
        5,
        68,
        156,
        284,
        177,
        83,
        278,
        225,
        175,
        124,
        290,
        26,
        32,
        280,
        76,
        299,
        50,
        201,
        291,
        28,
        58,
        37,
        135,
        104,
        49,
        31,
        248,
        241,
        62,
        60,
        118,
        169,
        232,
        35,
        122,
        202,
        234,
        229,
        86,
        36,
        148,
        23,
        59,
        275,
        20,
        71,
        164,
        52,
        187,
        216,
        80,
        73,
        157,
        1,
        176,
        24,
        154,
        41,
        206,
        150,
        243,
        53,
        249,
        142,
        140,
        17,
        128,
        87,
        161,
        213,
        295,
        256,
        181,
        153,
        208,
        211,
        227,
        126,
        42,
        158,
        70,
        4,
        111,
        0,
        38,
        174,
        46,
        286,
        240,
        117,
        233,
        10,
        112,
        95,
        196,
        162,
        194,
        257,
        82,
        47,
        231,
        267,
        207,
        281,
        190,
        98,
        219,
        131,
        293,
        221,
        45,
        238,
        40,
        147,
        22,
        263,
        298,
        152,
        18,
        129,
        217,
        116,
        27,
        170,
        2,
        171,
        251,
        179,
        103,
        255,
        88,
        244,
        279,
        212,
        230,
        133,
        276,
        209,
        226,
        160,
        204,
        89,
        167,
        72,
        138,
        54,
        56,
        203,
        296,
        109,
        108,
        271,
        93,
        132,
        99,
        246,
        222,
        97,
        81,
        258,
        66,
        265,
        189,
        51,
        85,
        287,
        119,
        137,
        139,
        9,
        210,
        269,
        172,
        30,
        11,
        15,
        236,
        264,
        285,
        188,
        123,
        48,
        262,
        254,
        146,
        75,
        260,
        134,
        214,
        297,
        6,
        94,
        96,
        127,
        288,
        91,
        64,
        183,
        44,
        92,
        8,
        61,
        110,
        106,
        43,
        223,
        228,
        250,
        113,
        145,
        268,
        79,
        114,
        125,
        184,
        200,
        74,
        69,
        57,
        192
    ],
    "Global Optimum": 0,
    "Algorithm": "Genetic algorithm",
    "Parameters": {
        "population": 30,
        "offspring": 30,
        "mutation probability": 0.0033333333333333335,
        "crossover probability": 0.9
    },
    "Fitness": 361919,
    "Solution": [
        173,
        245,
        277,
        12,
        159,
        239,
        274,
        182,
        198,
        115,
        136,
        78,
        270,
        25,
        180,
        120,
        186,
        7,
        237,
        141,
        55,
        282,
        218,
        100,
        185,
        261,
        65,
        224,
        63,
        220,
        29,
        272,
        130,
        247,
        144,
        193,
        21,
        3,
        67,
        33,
        151,
        191,
        143,
        165,
        16,
        168,
        242,
        205,
        259,
        199,
        252,
        107,
        121,
        266,
        19,
        84,
        101,
        77,
        292,
        178,
        149,
        195,
        166,
        294,
        289,
        215,
        235,
        163,
        197,
        13,
        273,
        102,
        155,
        105,
        39,
        90,
        14,
        283,
        34,
        253,
        5,
        68,
        156,
        284,
        177,
        83,
        278,
        225,
        175,
        124,
        290,
        26,
        32,
        280,
        76,
        299,
        50,
        201,
        291,
        28,
        58,
        37,
        135,
        104,
        49,
        31,
        248,
        241,
        62,
        60,
        118,
        169,
        232,
        35,
        122,
        202,
        234,
        229,
        86,
        36,
        148,
        23,
        59,
        275,
        20,
        71,
        164,
        52,
        187,
        216,
        80,
        73,
        157,
        1,
        176,
        24,
        154,
        41,
        206,
        150,
        243,
        53,
        249,
        142,
        140,
        17,
        128,
        87,
        161,
        213,
        295,
        256,
        181,
        153,
        208,
        211,
        227,
        126,
        42,
        158,
        70,
        4,
        111,
        0,
        38,
        174,
        46,
        286,
        240,
        117,
        233,
        10,
        112,
        95,
        196,
        162,
        194,
        257,
        82,
        47,
        231,
        267,
        207,
        281,
        190,
        98,
        219,
        131,
        293,
        221,
        45,
        238,
        40,
        147,
        22,
        263,
        298,
        152,
        18,
        129,
        217,
        116,
        27,
        170,
        2,
        171,
        251,
        179,
        103,
        255,
        88,
        244,
        279,
        212,
        230,
        133,
        276,
        209,
        226,
        160,
        204,
        89,
        167,
        72,
        138,
        54,
        56,
        203,
        296,
        109,
        108,
        271,
        93,
        132,
        99,
        246,
        222,
        97,
        81,
        258,
        66,
        265,
        189,
        51,
        85,
        287,
        119,
        137,
        139,
        9,
        210,
        269,
        172,
        30,
        11,
        15,
        236,
        264,
        285,
        188,
        123,
        48,
        262,
        254,
        146,
        75,
        260,
        134,
        214,
        297,
        6,
        94,
        96,
        127,
        288,
        91,
        64,
        183,
        44,
        92,
        8,
        61,
        110,
        106,
        43,
        223,
        228,
        250,
        113,
        145,
        268,
        79,
        114,
        125,
        184,
        200,
        74,
        69,
        57,
        192
    ],
    "Nb of functions evaluations": 50010,
    "Computational time in seconds": 142.02988958358765,
    "Stopping criterion in evaluations": 50000
}